24
glucose (RDKit ETKDG + MMFF94), carga=0, fonte=PubChem CID 64689 (beta-D-glicopiranose, monômero da celulose) -- proxy 'in natura'
C -2.257005 1.184961 0.475887
C -1.016158 0.287272 0.479069
C 0.271937 1.092497 0.243534
C 1.457510 0.127574 0.116944
C 1.176491 -0.937402 -0.938715
C -0.150203 -1.642418 -0.609305
O -1.205509 -0.685098 -0.564749
O -0.443654 -2.604423 -1.614742
O 2.251115 -1.884667 -0.992457
O 2.645681 0.847715 -0.247127
O 0.561206 1.993885 1.316137
O -3.422976 0.392795 0.696256
H -2.380064 1.685330 -0.490329
H -2.210231 1.942428 1.263084
H -0.979155 -0.239302 1.442061
H 0.200418 1.686071 -0.676760
H 1.680581 -0.342261 1.083199
H 1.122356 -0.476713 -1.933146
H -0.088970 -2.184896 0.341499
H 0.419598 -2.869129 -1.984611
H 3.066082 -1.341681 -1.010729
H 2.708609 1.579833 0.399249
H -0.054750 2.746607 1.257981
H -3.352908 -0.358976 0.073463
