23
Biomassa Base — NaOH (C6-alcóxido) -- B3LYP/6-31G* otimizado
C -1.590108 -1.257242 1.424266
C -0.437468 -0.260952 1.191380
C -0.691315 0.671789 -0.009585
C 0.647191 1.225253 -0.476600
C 1.492680 0.099243 -1.069826
C 1.189855 -1.262588 -0.346705
O 0.823208 -0.904707 1.077698
O 0.277099 -1.969505 -0.979036
O 2.890832 0.426644 -0.996595
O 0.469286 2.277663 -1.436086
O -1.522876 1.806222 0.344456
O -1.949512 -1.994194 0.291926
H -1.282011 -1.901083 2.273062
H -2.476356 -0.689202 1.771174
H -0.372022 0.387925 2.081931
H -1.161274 0.113312 -0.823905
H 1.185774 1.618334 0.401266
H 1.195998 -0.041753 -2.118234
H 2.170524 -1.760169 -0.158346
H -1.074101 -2.115730 -0.238065
H 2.973763 1.298231 -1.416189
H -0.322442 2.746261 -1.116897
H -2.436724 1.486248 0.328911
