29
glucose_acido (RDKit ETKDG + MMFF94), carga=0, fonte=PubChem CID 439427 (beta-D-glicose 6-fosfato) -- proxy tratamento H3PO4
C -1.428352 -1.053955 -0.955725
C 0.056576 -0.871572 -0.613923
C 0.272668 -0.078909 0.683909
C 1.774980 0.025496 0.946665
C 2.497141 0.644802 -0.248528
C 2.109253 -0.089982 -1.546740
O 0.698518 -0.200643 -1.707135
O 2.592748 0.645066 -2.663479
O 3.912678 0.566586 -0.007321
O 2.018284 0.823750 2.117597
O -0.333791 -0.718051 1.811802
O -2.116469 0.187778 -0.888768
P -3.462253 0.240214 -0.031981
O -4.570047 -0.663134 -0.435296
O -3.826690 1.790531 -0.025083
O -2.949487 0.029324 1.471414
H -1.882137 -1.780120 -0.271887
H -1.539415 -1.433905 -1.976553
H 0.489399 -1.877183 -0.525637
H -0.138021 0.936250 0.612509
H 2.194760 -0.962568 1.174909
H 2.252032 1.710930 -0.331408
H 2.570027 -1.085111 -1.577481
H 2.533708 0.037792 -3.417296
H 4.042337 0.997712 0.860310
H 1.408730 0.468452 2.795420
H -1.278265 -0.441461 1.812952
H -4.186048 2.075706 -0.885395
H -3.712866 0.076205 2.080448
