23
glucose_base (RDKit ETKDG + MMFF94), carga=-1, fonte=Glicopiranose C6-alcóxido (desprotonação do -OH primário) -- proxy tratamento NaOH
C -1.724041 -1.367754 0.862909
C -0.673375 -0.239909 1.154140
C -0.726723 0.954054 0.165571
C 0.637964 1.188775 -0.475472
C 1.193954 -0.125879 -1.007958
C 1.357933 -1.120028 0.164259
O 0.661530 -0.745173 1.354943
O 1.058319 -2.459159 -0.204754
O 2.457855 0.153180 -1.657053
O 0.533962 2.155823 -1.544343
O -1.106849 2.181330 0.833586
O -1.610358 -1.785882 -0.392183
H -1.563769 -2.109867 1.661804
H -2.689814 -0.927269 1.160236
H -0.946492 0.145178 2.146383
H -1.491168 0.821026 -0.607716
H 1.335584 1.637454 0.243348
H 0.553817 -0.536625 -1.796244
H 2.416245 -1.139854 0.446218
H 0.080643 -2.421325 -0.380629
H 2.255911 0.928935 -2.216539
H -0.055898 2.842570 -1.175494
H -1.955229 1.970398 1.264989
