29
Biomassa Ácido — H₃PO₄ (glicose-6-fosfato) -- B3LYP/6-31G* otimizado
C -1.398410 -1.043832 -0.931251
C 0.068413 -0.854480 -0.583008
C 0.304692 -0.079213 0.725647
C 1.807035 0.013508 0.956805
C 2.515387 0.651976 -0.237170
C 2.133595 -0.091958 -1.518483
O 0.708026 -0.166126 -1.650582
O 2.623587 0.612475 -2.606605
O 3.919427 0.590296 -0.071683
O 2.119539 0.794214 2.100902
O -0.263123 -0.726556 1.859948
O -2.102059 0.223159 -0.852169
P -3.510175 0.302459 -0.105655
O -4.582877 -0.630349 -0.509638
O -3.848528 1.870892 -0.216683
O -3.045327 0.160363 1.453690
H -1.841019 -1.770265 -0.243833
H -1.498529 -1.412217 -1.954797
H 0.493799 -1.868920 -0.472745
H -0.101424 0.932742 0.607034
H 2.198856 -1.010866 1.083537
H 2.169228 1.691609 -0.345283
H 2.535951 -1.121616 -1.478152
H 2.392680 0.115762 -3.407994
H 4.092785 0.917795 0.826911
H 1.583456 0.427815 2.824503
H -1.188774 -0.432683 1.928897
H -4.491827 2.031498 -0.927428
H -3.794384 -0.127484 2.003585
