24
Biomassa In Natura (glicopiranose) -- B3LYP/6-31G* otimizado
C -2.292779 1.131421 0.457940
C -1.013140 0.300321 0.480724
C 0.274458 1.111813 0.247080
C 1.465414 0.161858 0.125406
C 1.186789 -0.891949 -0.936619
C -0.126138 -1.610782 -0.614459
O -1.172308 -0.659445 -0.570612
O -0.469607 -2.527945 -1.607297
O 2.204359 -1.880301 -0.999135
O 2.656913 0.841448 -0.242122
O 0.579437 1.987821 1.334092
O -3.433820 0.320920 0.638575
H -2.337275 1.690059 -0.493286
H -2.280202 1.854025 1.281081
H -0.939882 -0.215979 1.451246
H 0.181358 1.675451 -0.693386
H 1.599721 -0.341994 1.097220
H 1.062021 -0.396699 -1.912086
H -0.042745 -2.106266 0.371840
H 0.362500 -2.949910 -1.882600
H 3.048566 -1.408090 -1.089693
H 2.783610 1.543487 0.417736
H 0.036453 2.785996 1.253447
H -3.333705 -0.415260 0.010600
