38
Azul de Metileno (cátion, adsorbato) -- B3LYP/6-31G* otimizado
C -6.233017 0.198805 0.290937
N -5.031872 -0.593687 0.006999
C -5.192416 -1.984521 -0.422853
C -3.797297 -0.053411 0.140459
C -2.626770 -0.814740 -0.129065
C -1.368511 -0.256596 0.009950
C -1.198026 1.110203 0.431083
C -2.389447 1.857303 0.696401
C -3.633110 1.312996 0.560693
N -0.032423 1.740194 0.595668
C 1.155535 1.168119 0.385789
C 2.318111 1.973049 0.606218
C 3.580956 1.489867 0.424163
C 3.795913 0.132847 -0.003522
N 5.049533 -0.346487 -0.183862
C 6.220173 0.505077 0.052716
C 5.261336 -1.728644 -0.619448
C 2.654740 -0.685065 -0.229677
C 1.376781 -0.189258 -0.042239
S 0.023441 -1.259277 -0.340663
H -6.299654 1.069309 -0.371033
H -6.246450 0.539640 1.332089
H -7.112382 -0.421967 0.125472
H -4.761025 -2.142599 -1.418120
H -6.253954 -2.222842 -0.470392
H -4.717637 -2.674224 0.284753
H -2.712347 -1.846222 -0.447448
H -2.259091 2.886719 1.013303
H -4.501935 1.921725 0.773424
H 2.149532 2.995356 0.928063
H 4.426321 2.140604 0.604575
H 6.257643 0.848071 1.092578
H 7.122079 -0.071550 -0.147433
H 6.217374 1.376629 -0.611216
H 6.330663 -1.915283 -0.706650
H 4.847441 -2.439239 0.105484
H 4.801143 -1.909425 -1.597832
H 2.778648 -1.711477 -0.551831
