38
methylene_blue (RDKit ETKDG + MMFF94), carga=1, fonte=PubChem CID 6099 (cátion, sem contraíon Cl-)
C -6.272871 0.124403 0.387232
N -5.074497 -0.694411 0.201680
C -5.253267 -1.890585 -0.621978
C -3.813217 -0.095385 0.265105
C -2.635744 -0.804318 -0.036025
C -1.350807 -0.227239 0.043262
C -1.211463 1.101738 0.441002
C -2.363407 1.820181 0.755848
C -3.633002 1.232711 0.675408
N 0.007665 1.782778 0.558304
C 1.132793 1.192004 0.330537
C 2.347457 2.025265 0.503219
C 3.588392 1.558926 0.341837
C 3.846656 0.138670 -0.029626
N 5.052113 -0.342894 -0.159919
C 6.278313 0.513693 -0.060771
C 5.320519 -1.795699 -0.414938
C 2.621393 -0.689109 -0.243864
C 1.375918 -0.215854 -0.081804
S 0.036156 -1.260224 -0.375655
H -6.366581 0.869181 -0.410654
H -6.264266 0.625734 1.361154
H -7.179045 -0.491748 0.376003
H -4.949881 -1.703569 -1.658070
H -6.300640 -2.212399 -0.639582
H -4.685188 -2.735722 -0.219189
H -2.701274 -1.847622 -0.332302
H -2.278083 2.856594 1.074526
H -4.478609 1.859100 0.944083
H 2.167041 3.060021 0.785769
H 4.411272 2.245813 0.509150
H 6.430634 0.769854 0.990628
H 7.143424 -0.035426 -0.442115
H 6.141002 1.405113 -0.678680
H 6.374250 -2.014801 -0.222510
H 4.717333 -2.395988 0.271455
H 5.077633 -2.008252 -1.458971
H 2.741879 -1.720535 -0.562014
